CMD:
./solvers/bin/cadical --plain --no-reduce -t 1600 ./data/cnfs//oski15a14b16s/oski15a14b16s.30.cnf

c --- [ banner ] -------------------------------------------------------------
c 
c CaDiCaL SAT Solver
c Copyright (c) 2016-2024
c A. Biere, M. Fleury, N. Froleyks, K. Fazekas, F. Pollitt, T. Faller
c JKU Linz, University of Freiburg, TU Wien
c 
c Version 2.1.3 5296d3d2a9bf48c154ab2acb5e44625776d821bf
c g++ (Gentoo 12.3.1_p20230526 p2) 12.3.1 20230526 -Wall -Wextra -O3 -DNDEBUG
c Sat Aug 9 07:26:21 PDT 2025 Linux cedar2.int.cedar.computecanada.ca 5.14.0-362.24.2.el9_3.x86_64 x86_64
c 
c --- [ limit ] --------------------------------------------------------------
c 
c setting time limit to 1600 seconds real time (due to '-t 1600')
c 
c --- [ parsing input ] ------------------------------------------------------
c 
c reading DIMACS file from './data/cnfs//oski15a14b16s/oski15a14b16s.30.cnf'
c opening file to read './data/cnfs//oski15a14b16s/oski15a14b16s.30.cnf'
c found 'p cnf 1363449 3983733' header
c parsed 3983733 clauses in 0.76 seconds process time
c 
c --- [ options ] ------------------------------------------------------------
c 
c   --compact=false                (different from default 'true')
c   --decompose=false              (different from default 'true')
c   --deduplicate=false            (different from default 'true')
c   --elim=false                   (different from default 'true')
c   --probe=false                  (different from default 'true')
c   --reduce=false                 (different from default 'true')
c   --subsume=false                (different from default 'true')
c   --ternary=false                (different from default 'true')
c   --transred=false               (different from default 'true')
c   --vivify=false                 (different from default 'true')
c 
c --- [ solving ] ------------------------------------------------------------
c 
c time measured in process time since initialization
c 
c  seconds   reductions  redundant   irredundant
c          MB    restarts       trail         variables
c           level   conflicts       glue            remaining
c 
c *  0.76 602  0 0   0    0    0  0% 0 3755645 1187145 87%
c {  1.07 615  0 0   0    0    0  0% 0 3755645 1187145 87%
c i  1.19 615 504 0   4  624  389 18% 6 3755645 1187140 87%
c i  1.29 615 374 0  12  864  515 17% 6 3755645 1187138 87%
c i  1.29 615 374 0  12  865  515 17% 6 3755645 1187121 87%
c i  1.30 615 372 0  12  869  518 17% 6 3755645 1187118 87%
c }  1.34 615 310 0  12 1004  645 17% 6 3755645 1187118 87%
c [  1.34 615  0 0  12 1004  645  0% 0 3755645 1187118 87%
c O  1.62 615 3599 0  12 1005  646 88% 4 3755645 1187118 87%
c i  1.62 615 3634 0  12 1078  718 87% 1 3755645 1186907 87%
c i  1.90 616 984 0  12 1505 1005 37% 9 3755645 1186746 87%
c ]  2.72 617 257 0  13 3004 2011 21% 11 3755645 1186746 87%
c {  2.72 617 310 0  13 3004 2011 17% 6 3755645 1186746 87%
c F  2.72 617 308 0  13 3013 2017 17% 6 3755645 1186746 87%
c i  2.75 617 291 0  13 3058 2057 17% 6 3755645 1186743 87%
c i  2.98 617 191 0  13 3616 2257 17% 5 3755645 1186489 87%
c i  3.17 617 154 0  41 3969 2470 16% 5 3755645 1182863 87%
c i  3.18 617 152 0  44 3993 2488 16% 5 3755645 1182788 87%
c i  3.23 617 147 0  50 4061 2548 16% 5 3755645 1182717 87%
c i  3.28 617 144 0  61 4115 2585 16% 5 3755645 1182546 87%
c 
c  seconds    reductions  redundant   irredundant
c          MB     restarts       trail         variables
c            level   conflicts       glue            remaining
c 
c i  3.51 617 128 0 122 4384 2820 16% 6 3755645 1182543 87%
c i  3.91 617 99 0 205 5072 3335 16% 6 3755645 1182540 87%
c i  3.92 617 98 0 205 5106 3359 16% 6 3755645 1182522 87%
c }  4.38 617 80 0 253 5885 3824 16% 6 3755645 1179233 86%
c 0  4.38 617 80 0 253 5885 3824 16% 6 3755645 1179233 86%
c 
c --- [ result ] -------------------------------------------------------------
c 
s UNSATISFIABLE
c 
c --- [ run-time profiling ] -------------------------------------------------
c 
c process time taken by individual solving procedures
c (percentage relative to process time for solving)
c 
c         3.61  100.00% search
c         1.93   53.30% unstable
c         1.38   38.28% stable
c         0.76   21.10% parse
c         0.30    8.42% lucky
c         0.00    0.00% simplify
c   =================================
c         3.61   82.57% solve
c 
c last line shows process time for solving
c (percentage relative to total process time)
c 
c --- [ statistics ] ---------------------------------------------------------
c 
c chronological:              1817        30.88 %  of conflicts
c conflicts:                  5885      1628.16    per second
c decisions:                 18192      5033.06    per second
c fixed:                    184216        13.51 %  of all variables
c learned:                    5177        87.97 %  per conflict
c learned_lits:             165158       100.00 %  learned literals
c minimized:                     0         0.00 %  learned literals
c shrunken:                  75799        45.89 %  learned literals
c minishrunken:              15334         9.28 %  learned literals
c otfs:                         30         0.51 %  of conflict
c propagations:           45205337        12.51 M  per second
c rephased:                      2      2942.50    interval
c restarts:                    253        23.26    interval
c stabilizing:                   1        33.98 %  of conflicts
c subsumed:                   1337         0.04 %  of all clauses
c strengthened:                 30         0.00 %  of all clauses
c 
c seconds are measured in process time for solving
c 
c --- [ resources ] ----------------------------------------------------------
c 
c total process time since initialization:         4.38    seconds
c total real time since initialization:            4.41    seconds
c maximum resident set size of process:          615.33    MB
c 
c --- [ shutting down ] ------------------------------------------------------
c 
c exit 20
